30 74
29
11 5 0 0
11 4 11 0
10 19 11 4
10 7 0 5
9 16 21 4
9 9 0 12
8 5 21 20
7 25 0 21
7 13 7 23
7 12 14 23
7 7 21 25
7 5 21 32
6 24 14 35
6 18 7 36
6 11 20 37
6 10 0 46
6 5 20 48
5 21 20 53
4 23 26 37
4 10 6 54
4 2 22 0
4 2 26 0
4 1 22 2
3 6 10 54
3 5 0 56
2 12 28 25
2 7 9 12
2 1 26 2
1 4 10 5

301
True
UPPER_BOUND